Total weight: 822.4
Route 1: 0 27 52 31 10 62 11 19 89 6 96 59 93 85 91 42 43 15 41 23 67 39 56 75 73 21 2 95 97 87 57 22 74 72 4 25 55 54 80 68 77 12 26 40 58 0 
Route 2: 0 53 24 29 78 34 35 65 71 30 70 88 7 82 48 8 46 45 17 84 83 18 60 5 61 86 16 44 14 38 100 37 98 92 99 94 13 0 
Route 3: 0 28 69 1 50 76 3 79 33 81 9 51 20 66 32 90 63 64 49 36 47 0 
